NAME : portcgen-28-9
COMMENT : portcgen N=28, seed=9
TYPE : TSP
DIMENSION : 28
EDGE_WEIGHT_TYPE : EUC_2D
NODE_COORD_SECTION
1 -5863 226385
2 299354 116994
3 -215539 151943
4 57356 -71275
5 -37547 -107999
6 68270 -43742
7 -154551 129416
8 -107985 -35501
9 136113 5163
10 -107481 78548
11 41957 188873
12 -52362 275026
13 275560 -76115
14 -34264 24494
15 435416 20241
16 -210384 179958
17 -88382 499323
18 -94883 5067
19 -166862 245499
20 254537 6138
21 71090 24512
22 84289 -71014
23 109602 -94738
24 76700 -93790
25 -70801 312125
26 -163328 -208188
27 2522 -13225
28 -74295 162233
